spongent-mitm-preimage/gurobi.log

Gurobi 10.0.3 (win64, Python) logging started Thu Feb  1 19:12:55 2024

Set parameter LogFile to value "gurobi.log"

Gurobi 10.0.3 (win64, Python) logging started Thu Feb  1 19:14:13 2024

Set parameter LogFile to value "gurobi.log"

Gurobi 10.0.3 (win64, Python) logging started Thu Feb  1 19:14:29 2024

Set parameter Username
Set parameter LogFile to value "gurobi.log"
Academic license - for non-commercial use only - expires 2025-01-31
